p edge 440 2200
e 1 57
e 1 77
e 1 166
e 1 287
e 1 344
e 2 148
e 2 288
e 2 374
e 2 403
e 2 408
e 3 71
e 3 100
e 3 318
e 3 364
e 3 422
e 4 45
e 4 104
e 4 279
e 4 293
e 4 346
e 5 11
e 5 29
e 5 172
e 5 275
e 5 373
e 6 132
e 6 222
e 6 323
e 6 348
e 6 388
e 7 29
e 7 243
e 7 295
e 7 391
e 7 431
e 8 60
e 8 115
e 8 246
e 8 256
e 8 424
e 9 7
e 9 115
e 9 162
e 9 255
e 9 303
e 10 82
e 10 140
e 10 217
e 10 248
e 10 344
e 11 5
e 11 170
e 11 216
e 11 260
e 11 347
e 12 75
e 12 93
e 12 99
e 12 199
e 12 209
e 13 42
e 13 127
e 13 160
e 13 196
e 13 311
e 14 142
e 14 167
e 14 264
e 14 410
e 14 417
e 15 102
e 15 119
e 15 244
e 15 292
e 15 406
e 16 63
e 16 198
e 16 201
e 16 259
e 16 314
e 17 2
e 17 73
e 17 103
e 17 377
e 17 428
e 18 141
e 18 184
e 18 222
e 18 282
e 18 437
e 19 1
e 19 22
e 19 57
e 19 242
e 19 256
e 20 66
e 20 97
e 20 278
e 20 361
e 20 408
e 21 9
e 21 110
e 21 268
e 21 313
e 21 344
e 22 75
e 22 288
e 22 302
e 22 337
e 22 396
e 23 25
e 23 105
e 23 291
e 23 306
e 23 328
e 24 80
e 24 201
e 24 213
e 24 262
e 24 334
e 25 47
e 25 131
e 25 168
e 25 274
e 25 341
e 26 254
e 26 270
e 26 305
e 26 340
e 26 351
e 27 17
e 27 237
e 27 305
e 27 361
e 27 440
e 28 15
e 28 340
e 28 358
e 28 377
e 28 424
e 29 145
e 29 231
e 29 312
e 29 357
e 29 429
e 30 6
e 30 80
e 30 98
e 30 230
e 30 263
e 31 75
e 31 81
e 31 128
e 31 342
e 31 426
e 32 305
e 32 338
e 32 359
e 32 387
e 32 390
e 33 87
e 33 149
e 33 223
e 33 353
e 33 434
e 34 13
e 34 52
e 34 158
e 34 253
e 34 333
e 35 1
e 35 15
e 35 29
e 35 321
e 35 422
e 36 34
e 36 117
e 36 118
e 36 372
e 36 378
e 37 57
e 37 131
e 37 314
e 37 403
e 37 413
e 38 98
e 38 104
e 38 155
e 38 336
e 38 393
e 39 140
e 39 189
e 39 232
e 39 237
e 39 292
e 40 225
e 40 291
e 40 302
e 40 335
e 40 388
e 41 40
e 41 73
e 41 249
e 41 325
e 41 372
e 42 261
e 42 277
e 42 277
e 42 296
e 42 337
e 43 3
e 43 30
e 43 290
e 43 357
e 43 407
e 44 86
e 44 152
e 44 266
e 44 271
e 44 298
e 45 58
e 45 112
e 45 113
e 45 208
e 45 215
e 46 205
e 46 213
e 46 217
e 46 262
e 46 362
e 47 8
e 47 21
e 47 32
e 47 114
e 47 210
e 48 104
e 48 121
e 48 144
e 48 384
e 48 404
e 49 24
e 49 36
e 49 227
e 49 230
e 49 369
e 50 4
e 50 189
e 50 190
e 50 275
e 50 300
e 51 14
e 51 156
e 51 304
e 51 314
e 51 391
e 52 100
e 52 211
e 52 296
e 52 307
e 52 382
e 53 41
e 53 137
e 53 148
e 53 227
e 53 408
e 54 24
e 54 73
e 54 110
e 54 184
e 54 343
e 55 20
e 55 75
e 55 319
e 55 338
e 55 422
e 56 13
e 56 125
e 56 195
e 56 200
e 56 361
e 57 64
e 57 123
e 57 224
e 57 312
e 57 369
e 58 83
e 58 213
e 58 338
e 58 354
e 58 371
e 59 60
e 59 170
e 59 227
e 59 249
e 59 369
e 60 82
e 60 100
e 60 173
e 60 387
e 60 422
e 61 33
e 61 90
e 61 96
e 61 118
e 61 201
e 62 105
e 62 227
e 62 257
e 62 394
e 62 438
e 63 72
e 63 154
e 63 166
e 63 197
e 63 238
e 64 75
e 64 101
e 64 335
e 64 365
e 64 419
e 65 124
e 65 138
e 65 148
e 65 187
e 65 351
e 66 100
e 66 191
e 66 337
e 66 383
e 66 420
e 67 34
e 67 38
e 67 75
e 67 402
e 67 417
e 68 183
e 68 208
e 68 248
e 68 271
e 68 383
e 69 150
e 69 185
e 69 212
e 69 278
e 69 432
e 70 183
e 70 248
e 70 401
e 70 406
e 70 427
e 71 37
e 71 59
e 71 126
e 71 203
e 71 280
e 72 160
e 72 202
e 72 278
e 72 289
e 72 429
e 73 4
e 73 25
e 73 83
e 73 350
e 73 413
e 74 276
e 74 309
e 74 346
e 74 401
e 74 437
e 75 8
e 75 26
e 75 71
e 75 307
e 75 400
e 76 20
e 76 30
e 76 117
e 76 191
e 76 249
e 77 21
e 77 28
e 77 211
e 77 268
e 77 321
e 78 15
e 78 225
e 78 228
e 78 286
e 78 414
e 79 16
e 79 65
e 79 200
e 79 341
e 79 413
e 80 52
e 80 178
e 80 261
e 80 328
e 80 419
e 81 43
e 81 233
e 81 253
e 81 354
e 81 373
e 82 35
e 82 342
e 82 367
e 82 388
e 82 401
e 83 32
e 83 121
e 83 214
e 83 374
e 83 406
e 84 61
e 84 82
e 84 276
e 84 294
e 84 385
e 85 61
e 85 304
e 85 318
e 85 390
e 85 417
e 86 1
e 86 81
e 86 102
e 86 173
e 86 262
e 87 73
e 87 74
e 87 136
e 87 195
e 87 217
e 88 46
e 88 234
e 88 248
e 88 251
e 88 431
e 89 196
e 89 217
e 89 276
e 89 316
e 89 395
e 90 295
e 90 340
e 90 356
e 90 375
e 90 437
e 91 92
e 91 159
e 91 265
e 91 381
e 91 387
e 92 79
e 92 186
e 92 216
e 92 240
e 92 361
e 93 13
e 93 108
e 93 158
e 93 337
e 93 389
e 94 13
e 94 74
e 94 229
e 94 331
e 94 361
e 95 115
e 95 146
e 95 192
e 95 262
e 95 424
e 96 217
e 96 238
e 96 334
e 96 365
e 96 393
e 97 69
e 97 139
e 97 169
e 97 205
e 97 288
e 98 39
e 98 176
e 98 203
e 98 301
e 98 347
e 99 20
e 99 37
e 99 43
e 99 116
e 99 303
e 100 120
e 100 224
e 100 274
e 100 411
e 100 415
e 101 93
e 101 343
e 101 423
e 101 430
e 101 435
e 102 14
e 102 32
e 102 253
e 102 311
e 102 376
e 103 62
e 103 71
e 103 112
e 103 146
e 103 223
e 104 91
e 104 175
e 104 203
e 104 395
e 104 439
e 105 65
e 105 157
e 105 342
e 105 343
e 105 395
e 106 18
e 106 19
e 106 57
e 106 92
e 106 230
e 107 37
e 107 100
e 107 174
e 107 329
e 107 394
e 108 7
e 108 85
e 108 95
e 108 161
e 108 430
e 109 136
e 109 150
e 109 177
e 109 190
e 109 377
e 110 38
e 110 61
e 110 181
e 110 223
e 110 303
e 111 4
e 111 5
e 111 260
e 111 274
e 111 330
e 112 38
e 112 335
e 112 358
e 112 381
e 112 434
e 113 49
e 113 51
e 113 278
e 113 411
e 113 426
e 114 62
e 114 168
e 114 220
e 114 223
e 114 335
e 115 125
e 115 146
e 115 208
e 115 256
e 115 415
e 116 22
e 116 77
e 116 230
e 116 368
e 116 406
e 117 156
e 117 186
e 117 403
e 117 409
e 117 435
e 118 7
e 118 201
e 118 286
e 118 342
e 118 368
e 119 141
e 119 144
e 119 266
e 119 345
e 119 412
e 120 20
e 120 187
e 120 218
e 120 385
e 120 415
e 121 17
e 121 109
e 121 159
e 121 238
e 121 297
e 122 38
e 122 48
e 122 312
e 122 343
e 122 425
e 123 111
e 123 173
e 123 245
e 123 263
e 123 277
e 124 49
e 124 226
e 124 243
e 124 249
e 124 340
e 125 37
e 125 51
e 125 110
e 125 237
e 125 370
e 126 139
e 126 353
e 126 376
e 126 389
e 126 397
e 127 169
e 127 195
e 127 242
e 127 324
e 127 398
e 128 207
e 128 266
e 128 343
e 128 377
e 128 428
e 129 106
e 129 241
e 129 254
e 129 352
e 129 424
e 130 14
e 130 21
e 130 242
e 130 416
e 130 417
e 131 149
e 131 273
e 131 289
e 131 290
e 131 352
e 132 45
e 132 65
e 132 110
e 132 188
e 132 244
e 133 39
e 133 126
e 133 219
e 133 253
e 133 425
e 134 29
e 134 123
e 134 190
e 134 202
e 134 275
e 135 74
e 135 155
e 135 198
e 135 214
e 135 294
e 136 23
e 136 118
e 136 128
e 136 191
e 136 231
e 137 48
e 137 120
e 137 157
e 137 158
e 137 330
e 138 170
e 138 289
e 138 306
e 138 352
e 138 439
e 139 15
e 139 171
e 139 242
e 139 352
e 139 415
e 140 26
e 140 39
e 140 99
e 140 276
e 140 352
e 141 69
e 141 89
e 141 151
e 141 235
e 141 292
e 142 52
e 142 98
e 142 116
e 142 205
e 142 359
e 143 7
e 143 125
e 143 364
e 143 405
e 143 419
e 144 50
e 144 137
e 144 154
e 144 155
e 144 181
e 145 122
e 145 201
e 145 311
e 145 353
e 145 379
e 146 192
e 146 264
e 146 358
e 146 363
e 146 396
e 147 49
e 147 122
e 147 175
e 147 210
e 147 397
e 148 220
e 148 239
e 148 274
e 148 333
e 148 422
e 149 158
e 149 233
e 149 242
e 149 284
e 149 289
e 150 98
e 150 99
e 150 172
e 150 228
e 150 336
e 151 104
e 151 136
e 151 152
e 151 181
e 151 436
e 152 3
e 152 45
e 152 218
e 152 250
e 152 305
e 153 14
e 153 25
e 153 130
e 153 217
e 153 423
e 154 59
e 154 90
e 154 106
e 154 212
e 154 291
e 155 168
e 155 176
e 155 265
e 155 280
e 155 339
e 156 45
e 156 91
e 156 289
e 156 302
e 156 407
e 157 45
e 157 82
e 157 192
e 157 248
e 157 297
e 158 36
e 158 76
e 158 142
e 158 227
e 158 397
e 159 187
e 159 203
e 159 249
e 159 363
e 159 392
e 160 42
e 160 132
e 160 365
e 160 390
e 160 436
e 161 130
e 161 152
e 161 219
e 161 318
e 161 414
e 162 70
e 162 79
e 162 142
e 162 168
e 162 409
e 163 66
e 163 218
e 163 279
e 163 310
e 163 335
e 164 91
e 164 179
e 164 190
e 164 308
e 164 323
e 165 83
e 165 116
e 165 140
e 165 142
e 165 287
e 166 96
e 166 201
e 166 261
e 166 303
e 166 310
e 167 115
e 167 157
e 167 199
e 167 232
e 167 272
e 168 187
e 168 258
e 168 269
e 168 346
e 168 399
e 169 84
e 169 117
e 169 162
e 169 212
e 169 287
e 170 119
e 170 166
e 170 259
e 170 383
e 170 383
e 171 160
e 171 162
e 171 215
e 171 280
e 171 429
e 172 28
e 172 52
e 172 61
e 172 77
e 172 79
e 173 216
e 173 286
e 173 295
e 173 309
e 173 422
e 174 23
e 174 69
e 174 155
e 174 346
e 174 387
e 175 255
e 175 278
e 175 284
e 175 335
e 175 373
e 176 70
e 176 79
e 176 224
e 176 293
e 176 376
e 177 111
e 177 235
e 177 249
e 177 293
e 177 392
e 178 102
e 178 329
e 178 332
e 178 344
e 178 387
e 179 48
e 179 75
e 179 123
e 179 251
e 179 415
e 180 24
e 180 178
e 180 199
e 180 338
e 180 369
e 181 30
e 181 149
e 181 237
e 181 330
e 181 415
e 182 17
e 182 82
e 182 304
e 182 352
e 182 428
e 183 71
e 183 177
e 183 308
e 183 356
e 183 394
e 184 4
e 184 99
e 184 221
e 184 247
e 184 398
e 185 192
e 185 307
e 185 361
e 185 404
e 185 421
e 186 22
e 186 80
e 186 151
e 186 280
e 186 351
e 187 33
e 187 173
e 187 299
e 187 354
e 187 436
e 188 163
e 188 231
e 188 348
e 188 357
e 188 435
e 189 66
e 189 84
e 189 231
e 189 390
e 189 400
e 190 23
e 190 199
e 190 299
e 190 331
e 190 377
e 191 149
e 191 175
e 191 219
e 191 369
e 191 378
e 192 93
e 192 113
e 192 177
e 192 209
e 192 425
e 193 80
e 193 227
e 193 256
e 193 312
e 193 345
e 194 78
e 194 137
e 194 151
e 194 225
e 194 313
e 195 64
e 195 110
e 195 112
e 195 169
e 195 246
e 196 1
e 196 17
e 196 58
e 196 180
e 196 395
e 197 55
e 197 118
e 197 156
e 197 397
e 197 400
e 198 97
e 198 134
e 198 184
e 198 255
e 198 326
e 199 70
e 199 71
e 199 138
e 199 315
e 199 316
e 200 55
e 200 84
e 200 203
e 200 270
e 200 283
e 201 22
e 201 111
e 201 154
e 201 189
e 201 381
e 202 39
e 202 53
e 202 125
e 202 159
e 202 304
e 203 68
e 203 79
e 203 234
e 203 289
e 203 302
e 204 17
e 204 42
e 204 80
e 204 289
e 204 403
e 205 73
e 205 134
e 205 400
e 205 405
e 205 438
e 206 93
e 206 252
e 206 300
e 206 315
e 206 382
e 207 171
e 207 257
e 207 277
e 207 342
e 207 369
e 208 13
e 208 39
e 208 94
e 208 137
e 208 423
e 209 159
e 209 317
e 209 318
e 209 425
e 209 434
e 210 118
e 210 181
e 210 192
e 210 355
e 210 412
e 211 217
e 211 226
e 211 260
e 211 314
e 211 352
e 212 105
e 212 108
e 212 119
e 212 405
e 212 410
e 213 83
e 213 219
e 213 239
e 213 276
e 213 311
e 214 300
e 214 332
e 214 337
e 214 382
e 214 411
e 215 5
e 215 31
e 215 236
e 215 239
e 215 311
e 216 43
e 216 93
e 216 94
e 216 250
e 216 375
e 217 13
e 217 73
e 217 395
e 217 405
e 217 409
e 218 36
e 218 73
e 218 136
e 218 376
e 218 427
e 219 85
e 219 141
e 219 161
e 219 195
e 219 404
e 220 14
e 220 203
e 220 228
e 220 232
e 220 265
e 221 107
e 221 215
e 221 254
e 221 360
e 221 438
e 222 151
e 222 297
e 222 379
e 222 401
e 222 406
e 223 35
e 223 101
e 223 118
e 223 217
e 223 436
e 224 128
e 224 191
e 224 263
e 224 295
e 224 367
e 225 34
e 225 50
e 225 106
e 225 227
e 225 248
e 226 110
e 226 163
e 226 324
e 226 393
e 226 435
e 227 69
e 227 113
e 227 194
e 227 234
e 227 235
e 228 26
e 228 46
e 228 109
e 228 304
e 228 377
e 229 44
e 229 106
e 229 209
e 229 410
e 229 432
e 230 127
e 230 157
e 230 294
e 230 375
e 230 394
e 231 83
e 231 273
e 231 426
e 231 428
e 231 428
e 232 64
e 232 95
e 232 97
e 232 180
e 232 267
e 233 33
e 233 36
e 233 202
e 233 227
e 233 373
e 234 43
e 234 306
e 234 347
e 234 385
e 234 416
e 235 67
e 235 132
e 235 210
e 235 388
e 235 418
e 236 10
e 236 56
e 236 161
e 236 370
e 236 387
e 237 51
e 237 90
e 237 315
e 237 357
e 237 383
e 238 67
e 238 73
e 238 283
e 238 336
e 238 425
e 239 36
e 239 51
e 239 58
e 239 121
e 239 247
e 240 297
e 240 302
e 240 307
e 240 330
e 240 370
e 241 131
e 241 149
e 241 173
e 241 287
e 241 388
e 242 75
e 242 126
e 242 215
e 242 232
e 242 314
e 243 319
e 243 344
e 243 370
e 243 383
e 243 436
e 244 35
e 244 90
e 244 184
e 244 404
e 244 425
e 245 6
e 245 127
e 245 172
e 245 230
e 245 423
e 246 147
e 246 174
e 246 209
e 246 390
e 246 439
e 247 1
e 247 223
e 247 272
e 247 297
e 247 310
e 248 22
e 248 43
e 248 201
e 248 257
e 248 338
e 249 120
e 249 191
e 249 194
e 249 286
e 249 317
e 250 29
e 250 68
e 250 271
e 250 360
e 250 434
e 251 69
e 251 75
e 251 162
e 251 370
e 251 372
e 252 103
e 252 169
e 252 316
e 252 322
e 252 345
e 253 31
e 253 205
e 253 263
e 253 274
e 253 383
e 254 125
e 254 224
e 254 224
e 254 302
e 254 414
e 255 146
e 255 157
e 255 232
e 255 245
e 255 347
e 256 199
e 256 255
e 256 274
e 256 282
e 256 369
e 257 102
e 257 106
e 257 127
e 257 198
e 257 318
e 258 130
e 258 213
e 258 251
e 258 265
e 258 433
e 259 281
e 259 325
e 259 352
e 259 376
e 259 426
e 260 73
e 260 96
e 260 206
e 260 331
e 260 385
e 261 26
e 261 208
e 261 304
e 261 369
e 261 429
e 262 114
e 262 137
e 262 139
e 262 239
e 262 333
e 263 5
e 263 20
e 263 31
e 263 100
e 263 290
e 264 86
e 264 150
e 264 203
e 264 312
e 264 342
e 265 16
e 265 297
e 265 300
e 265 343
e 265 347
e 266 70
e 266 153
e 266 189
e 266 264
e 266 324
e 267 62
e 267 100
e 267 285
e 267 309
e 267 351
e 268 45
e 268 76
e 268 136
e 268 157
e 268 238
e 269 101
e 269 124
e 269 202
e 269 296
e 269 404
e 270 33
e 270 144
e 270 237
e 270 340
e 270 409
e 271 68
e 271 82
e 271 105
e 271 143
e 271 148
e 272 62
e 272 78
e 272 305
e 272 322
e 272 406
e 273 24
e 273 71
e 273 207
e 273 275
e 273 374
e 274 133
e 274 155
e 274 259
e 274 347
e 274 368
e 275 71
e 275 85
e 275 293
e 275 369
e 275 430
e 276 34
e 276 125
e 276 164
e 276 230
e 276 267
e 277 135
e 277 197
e 277 231
e 277 237
e 277 249
e 278 165
e 278 186
e 278 380
e 278 419
e 278 431
e 279 87
e 279 235
e 279 265
e 279 300
e 279 385
e 280 21
e 280 168
e 280 200
e 280 249
e 280 377
e 281 23
e 281 162
e 281 223
e 281 238
e 281 282
e 282 43
e 282 177
e 282 209
e 282 209
e 282 257
e 283 105
e 283 159
e 283 198
e 283 279
e 283 342
e 284 35
e 284 46
e 284 87
e 284 283
e 284 350
e 285 39
e 285 118
e 285 195
e 285 221
e 285 434
e 286 171
e 286 200
e 286 204
e 286 248
e 286 373
e 287 30
e 287 42
e 287 128
e 287 260
e 287 300
e 288 88
e 288 119
e 288 176
e 288 241
e 288 427
e 289 17
e 289 29
e 289 141
e 289 225
e 289 301
e 290 204
e 290 225
e 290 286
e 290 423
e 290 433
e 291 134
e 291 155
e 291 168
e 291 239
e 291 339
e 292 162
e 292 358
e 292 399
e 292 425
e 292 436
e 293 35
e 293 130
e 293 201
e 293 361
e 293 429
e 294 116
e 294 243
e 294 345
e 294 415
e 294 435
e 295 36
e 295 145
e 295 234
e 295 272
e 295 429
e 296 102
e 296 114
e 296 164
e 296 242
e 296 373
e 297 6
e 297 157
e 297 180
e 297 301
e 297 423
e 298 116
e 298 168
e 298 249
e 298 268
e 298 435
e 299 14
e 299 129
e 299 318
e 299 327
e 299 385
e 300 80
e 300 290
e 300 371
e 300 380
e 300 438
e 301 118
e 301 134
e 301 202
e 301 317
e 301 440
e 302 3
e 302 112
e 302 299
e 302 380
e 302 394
e 303 15
e 303 39
e 303 287
e 303 377
e 303 389
e 304 10
e 304 18
e 304 189
e 304 280
e 304 321
e 305 11
e 305 16
e 305 201
e 305 341
e 305 414
e 306 111
e 306 195
e 306 241
e 306 270
e 306 417
e 307 105
e 307 230
e 307 284
e 307 291
e 307 339
e 308 43
e 308 97
e 308 106
e 308 214
e 308 309
e 309 20
e 309 125
e 309 154
e 309 184
e 309 281
e 310 13
e 310 61
e 310 287
e 310 339
e 310 375
e 311 11
e 311 21
e 311 85
e 311 99
e 311 319
e 312 64
e 312 67
e 312 91
e 312 292
e 312 361
e 313 17
e 313 89
e 313 161
e 313 325
e 313 419
e 314 48
e 314 65
e 314 169
e 314 175
e 314 286
e 315 116
e 315 207
e 315 274
e 315 281
e 315 320
e 316 136
e 316 141
e 316 155
e 316 249
e 316 258
e 317 37
e 317 115
e 317 179
e 317 375
e 317 431
e 318 51
e 318 279
e 318 289
e 318 373
e 318 413
e 319 21
e 319 240
e 319 251
e 319 302
e 319 392
e 320 7
e 320 29
e 320 94
e 320 167
e 320 341
e 321 23
e 321 182
e 321 183
e 321 246
e 321 331
e 322 126
e 322 173
e 322 181
e 322 217
e 322 355
e 323 27
e 323 40
e 323 332
e 323 379
e 323 399
e 324 252
e 324 333
e 324 340
e 324 363
e 324 440
e 325 4
e 325 14
e 325 86
e 325 323
e 325 349
e 326 18
e 326 85
e 326 292
e 326 354
e 326 386
e 327 49
e 327 86
e 327 160
e 327 313
e 327 420
e 328 147
e 328 166
e 328 182
e 328 216
e 328 406
e 329 104
e 329 110
e 329 208
e 329 290
e 329 412
e 330 27
e 330 136
e 330 175
e 330 178
e 330 229
e 331 108
e 331 113
e 331 150
e 331 205
e 331 339
e 332 12
e 332 66
e 332 97
e 332 177
e 332 301
e 333 47
e 333 131
e 333 180
e 333 367
e 333 386
e 334 8
e 334 115
e 334 184
e 334 246
e 334 313
e 335 73
e 335 150
e 335 173
e 335 208
e 335 405
e 336 31
e 336 222
e 336 282
e 336 288
e 336 398
e 337 102
e 337 201
e 337 286
e 337 336
e 337 399
e 338 74
e 338 133
e 338 362
e 338 374
e 338 412
e 339 77
e 339 121
e 339 274
e 339 278
e 339 398
e 340 10
e 340 86
e 340 216
e 340 259
e 340 286
e 341 58
e 341 189
e 341 232
e 341 235
e 341 295
e 342 139
e 342 304
e 342 319
e 342 372
e 342 388
e 343 23
e 343 224
e 343 239
e 343 391
e 343 420
e 344 22
e 344 205
e 344 262
e 344 348
e 344 434
e 345 18
e 345 50
e 345 123
e 345 229
e 345 358
e 346 151
e 346 247
e 346 260
e 346 329
e 346 431
e 347 232
e 347 269
e 347 323
e 347 354
e 347 380
e 348 20
e 348 77
e 348 101
e 348 107
e 348 130
e 349 78
e 349 136
e 349 290
e 349 373
e 349 424
e 350 14
e 350 93
e 350 224
e 350 359
e 350 404
e 351 72
e 351 187
e 351 333
e 351 354
e 351 398
e 352 163
e 352 261
e 352 355
e 352 364
e 352 418
e 353 141
e 353 199
e 353 279
e 353 368
e 353 424
e 354 5
e 354 112
e 354 126
e 354 242
e 354 414
e 355 24
e 355 55
e 355 156
e 355 203
e 355 388
e 356 44
e 356 78
e 356 153
e 356 304
e 356 437
e 357 132
e 357 145
e 357 237
e 357 273
e 357 386
e 358 20
e 358 108
e 358 148
e 358 334
e 358 365
e 359 22
e 359 41
e 359 130
e 359 292
e 359 393
e 360 2
e 360 107
e 360 215
e 360 272
e 360 434
e 361 87
e 361 90
e 361 124
e 361 125
e 361 215
e 362 17
e 362 129
e 362 228
e 362 235
e 362 365
e 363 172
e 363 252
e 363 274
e 363 301
e 363 438
e 364 7
e 364 11
e 364 165
e 364 239
e 364 320
e 365 67
e 365 148
e 365 307
e 365 401
e 365 431
e 366 126
e 366 133
e 366 214
e 366 262
e 366 331
e 367 245
e 367 265
e 367 293
e 367 299
e 367 406
e 368 25
e 368 157
e 368 191
e 368 224
e 368 276
e 369 156
e 369 240
e 369 316
e 369 356
e 369 400
e 370 12
e 370 55
e 370 256
e 370 346
e 370 384
e 371 18
e 371 139
e 371 316
e 371 347
e 371 355
e 372 55
e 372 180
e 372 231
e 372 353
e 372 379
e 373 46
e 373 121
e 373 188
e 373 194
e 373 344
e 374 9
e 374 30
e 374 46
e 374 171
e 374 336
e 375 164
e 375 289
e 375 322
e 375 387
e 375 425
e 376 31
e 376 50
e 376 175
e 376 309
e 376 412
e 377 326
e 377 328
e 377 358
e 377 363
e 377 420
e 378 28
e 378 124
e 378 301
e 378 330
e 378 380
e 379 7
e 379 197
e 379 201
e 379 207
e 379 271
e 380 292
e 380 325
e 380 332
e 380 376
e 380 389
e 381 39
e 381 133
e 381 135
e 381 157
e 381 303
e 382 44
e 382 77
e 382 188
e 382 199
e 382 202
e 383 24
e 383 67
e 383 70
e 383 77
e 383 183
e 384 9
e 384 147
e 384 271
e 384 365
e 384 386
e 385 3
e 385 69
e 385 188
e 385 398
e 385 402
e 386 44
e 386 48
e 386 54
e 386 137
e 386 406
e 387 154
e 387 160
e 387 212
e 387 236
e 387 333
e 388 12
e 388 63
e 388 112
e 388 272
e 388 420
e 389 126
e 389 171
e 389 202
e 389 342
e 389 428
e 390 130
e 390 177
e 390 295
e 390 322
e 390 401
e 391 55
e 391 56
e 391 153
e 391 364
e 391 398
e 392 79
e 392 106
e 392 132
e 392 195
e 392 299
e 393 54
e 393 93
e 393 142
e 393 188
e 393 382
e 394 27
e 394 69
e 394 107
e 394 298
e 394 324
e 395 165
e 395 229
e 395 343
e 395 347
e 395 368
e 396 26
e 396 153
e 396 170
e 396 326
e 396 392
e 397 8
e 397 79
e 397 189
e 397 265
e 397 305
e 398 72
e 398 208
e 398 272
e 398 286
e 398 329
e 399 53
e 399 195
e 399 361
e 399 371
e 399 402
e 400 43
e 400 101
e 400 162
e 400 173
e 400 184
e 401 184
e 401 286
e 401 298
e 401 349
e 401 428
e 402 2
e 402 105
e 402 312
e 402 354
e 402 385
e 403 56
e 403 184
e 403 294
e 403 371
e 403 382
e 404 60
e 404 252
e 404 262
e 404 397
e 404 407
e 405 45
e 405 64
e 405 238
e 405 259
e 405 299
e 406 36
e 406 69
e 406 244
e 406 297
e 406 404
e 407 76
e 407 101
e 407 119
e 407 349
e 407 416
e 408 79
e 408 92
e 408 268
e 408 270
e 408 280
e 409 165
e 409 220
e 409 284
e 409 340
e 409 364
e 410 167
e 410 222
e 410 308
e 410 314
e 410 430
e 411 104
e 411 163
e 411 216
e 411 238
e 411 435
e 412 77
e 412 172
e 412 191
e 412 201
e 412 281
e 413 1
e 413 26
e 413 30
e 413 37
e 413 362
e 414 188
e 414 222
e 414 247
e 414 326
e 414 430
e 415 9
e 415 234
e 415 306
e 415 325
e 415 396
e 416 197
e 416 279
e 416 297
e 416 366
e 416 404
e 417 39
e 417 155
e 417 192
e 417 321
e 417 432
e 418 28
e 418 59
e 418 70
e 418 103
e 418 175
e 419 8
e 419 209
e 419 267
e 419 278
e 419 417
e 420 6
e 420 66
e 420 306
e 420 380
e 420 410
e 421 91
e 421 158
e 421 337
e 421 409
e 421 410
e 422 7
e 422 203
e 422 240
e 422 270
e 422 346
e 423 62
e 423 125
e 423 220
e 423 279
e 423 363
e 424 237
e 424 240
e 424 269
e 424 416
e 424 423
e 425 18
e 425 278
e 425 304
e 425 319
e 425 408
e 426 97
e 426 118
e 426 344
e 426 367
e 426 378
e 427 28
e 427 246
e 427 305
e 427 333
e 427 367
e 428 200
e 428 291
e 428 373
e 428 396
e 428 398
e 429 77
e 429 83
e 429 97
e 429 193
e 429 242
e 430 1
e 430 222
e 430 299
e 430 322
e 430 366
e 431 1
e 431 158
e 431 184
e 431 309
e 431 356
e 432 109
e 432 128
e 432 129
e 432 167
e 432 387
e 433 6
e 433 95
e 433 116
e 433 182
e 433 417
e 434 11
e 434 29
e 434 171
e 434 192
e 434 408
e 435 63
e 435 172
e 435 208
e 435 260
e 435 335
e 436 164
e 436 364
e 436 371
e 436 392
e 436 419
e 437 27
e 437 34
e 437 79
e 437 96
e 437 220
e 438 12
e 438 20
e 438 67
e 438 105
e 438 175
e 439 45
e 439 164
e 439 204
e 439 372
e 439 377
e 440 8
e 440 82
e 440 143
e 440 291
e 440 436
